\ SCIP STATISTICS
\   Problem name     : model
\   Variables        : 4 (0 binary, 0 integer, 0 implicit integer, 4 continuous)
\   Constraints      : 8
Minimize
 Obj: +5.16439745503538 f00 +33.2700535453478 f01 +49.3785434896105 f10 +38.9117284227927 f11
Subject to
 c1: +2 f00 = +0
 c2: +1 f01 +1 f10 = +0
 c3: +1 f10 +1 f01 = +0
 c4: +2 f11 = +0
 c5: +1 f00 +1 f01 = +0
 c6: +1 f00 +1 f10 = +27.213131231
 c7: +1 f10 +1 f11 = +0
 c8: +1 f10 +1 f11 = +0
Bounds
 0 <= f00 <= 17.7481863993525
 0 <= f01 <= 39.7199907282304
 0 <= f10 <= 6.01047160336952
 0 <= f11 <= 3.40229133684804
End
